50
26.0
0 49 1.02 1.0
1 48 1.0 1.0
2 47 1.02 1.0
3 46 1.0 1.0
4 45 1.02 1.0
5 44 1.0 1.0
6 43 1.02 1.0
7 42 1.0 1.0
8 41 1.02 1.0
9 40 1.0 1.0
10 39 1.03 1.0
11 38 1.0 1.0
12 37 1.03 1.0
13 36 1.0 1.0
14 35 1.03 1.0
15 34 1.0 1.0
16 33 1.03 1.0
17 32 1.0 1.0
18 31 1.03 1.0
19 30 1.0 1.0
20 29 1.03 1.0
21 28 1.0 1.0
22 27 1.04 1.0
23 26 1.0 1.0
24 25 1.04 1.0
25 24 1.0 1.0
26 23 1.04 1.0
27 22 1.0 1.0
28 21 1.05 1.0
29 20 1.0 1.0
30 19 1.05 1.0
31 18 1.0 1.0
32 17 1.06 1.0
33 16 1.0 1.0
34 15 1.07 1.0
35 14 1.0 1.0
36 13 1.08 1.0
37 12 1.0 1.0
38 11 1.09 1.0
39 10 1.0 1.0
40 9 1.11 1.0
41 8 1.0 1.0
42 7 1.14 1.0
43 6 1.0 1.0
44 5 1.2 1.0
45 4 1.0 1.0
46 3 1.33 1.0
47 2 1.0 1.0
48 1 2.0 1.0
